K-points for bandstructure G-X-M-G-R
200
line
reciprocal
  0.00000  0.00000  0.00000   ! \Gamma
  0.00000  0.50000  0.00000   ! X

  0.00000  0.50000  0.00000   ! X
  0.50000  0.50000  0.00000   ! M

  0.50000  0.50000  0.00000   ! M
  0.00000  0.00000  0.00000   ! \Gamma
			
  0.00000  0.00000  0.00000   ! \Gamma
  0.50000  0.50000  0.50000   ! R
